\ Model idol-model
\ LP format - for model browsing. Use MPS format to capture full model detail.
\ Signature: 0x7b85dff1e7bde8bf
Minimize
 
Subject To
 Lambda: __copy_x_50 + __copy_x_49 + __copy_x_48 + __copy_x_47
   + __copy_x_46 + __copy_x_45 + __copy_x_44 + __copy_x_43 + __copy_x_42
   + __copy_x_41 + __copy_x_40 + __copy_x_39 + __copy_x_38 + __copy_x_37
   + __copy_x_36 + __copy_x_35 + __copy_x_34 + __copy_x_33 + __copy_x_32
   + __copy_x_31 + __copy_x_30 + __copy_x_29 + __copy_x_28 + __copy_x_27
   + __copy_x_26 + __copy_x_25 + __copy_x_24 + __copy_x_23 + __copy_x_22
   + __copy_x_21 + __copy_x_20 + __copy_x_19 + __copy_x_18 + __copy_x_17
   + __copy_x_16 + __copy_x_15 + __copy_x_14 + __copy_x_13 + __copy_x_12
   + __copy_x_11 + __copy_x_10 + __copy_x_9 + __copy_x_8 + __copy_x_7
   + __copy_x_6 + __copy_x_5 + __copy_x_4 + __copy_x_3 + __copy_x_1 <= 3
 V1: y_1 + __copy_a_1 <= 1
 V3: y_3 + __copy_a_3 <= 1
 V4: y_4 + __copy_a_4 <= 1
 V5: y_5 + __copy_a_5 <= 1
 V6: y_6 + __copy_a_6 <= 1
 V7: y_7 + __copy_a_7 <= 1
 V8: y_8 + __copy_a_8 <= 1
 V9: y_9 + __copy_a_9 <= 1
 V10: y_10 + __copy_a_10 <= 1
 V11: y_11 + __copy_a_11 <= 1
 V12: y_12 + __copy_a_12 <= 1
 V13: y_13 + __copy_a_13 <= 1
 V14: y_14 + __copy_a_14 <= 1
 V15: y_15 + __copy_a_15 <= 1
 V16: y_16 + __copy_a_16 <= 1
 V17: y_17 + __copy_a_17 <= 1
 V18: y_18 + __copy_a_18 <= 1
 V19: y_19 + __copy_a_19 <= 1
 V20: y_20 + __copy_a_20 <= 1
 V21: y_21 + __copy_a_21 <= 1
 V22: y_22 + __copy_a_22 <= 1
 V23: y_23 + __copy_a_23 <= 1
 V24: y_24 + __copy_a_24 <= 1
 V25: y_25 + __copy_a_25 <= 1
 V26: y_26 + __copy_a_26 <= 1
 V27: y_27 + __copy_a_27 <= 1
 V28: y_28 + __copy_a_28 <= 1
 V29: y_29 + __copy_a_29 <= 1
 V30: y_30 + __copy_a_30 <= 1
 V31: y_31 + __copy_a_31 <= 1
 V32: y_32 + __copy_a_32 <= 1
 V33: y_33 + __copy_a_33 <= 1
 V34: y_34 + __copy_a_34 <= 1
 V35: y_35 + __copy_a_35 <= 1
 V36: y_36 + __copy_a_36 <= 1
 V37: y_37 + __copy_a_37 <= 1
 V38: y_38 + __copy_a_38 <= 1
 V39: y_39 + __copy_a_39 <= 1
 V40: y_40 + __copy_a_40 <= 1
 V41: y_41 + __copy_a_41 <= 1
 V42: y_42 + __copy_a_42 <= 1
 V43: y_43 + __copy_a_43 <= 1
 V44: y_44 + __copy_a_44 <= 1
 V45: y_45 + __copy_a_45 <= 1
 V46: y_46 + __copy_a_46 <= 1
 V47: y_47 + __copy_a_47 <= 1
 V48: y_48 + __copy_a_48 <= 1
 V49: y_49 + __copy_a_49 <= 1
 V50: y_50 + __copy_a_50 <= 1
 A4-3: - __copy_x_3 + __copy_a_3 - __copy_a_4 <= 0
 A3-4: - __copy_x_4 - __copy_a_3 + __copy_a_4 <= 0
 A6-5: - __copy_x_5 + __copy_a_5 - __copy_a_6 <= 0
 A5-6: - __copy_x_6 - __copy_a_5 + __copy_a_6 <= 0
 A7-4: - __copy_x_4 + __copy_a_4 - __copy_a_7 <= 0
 A4-7: - __copy_x_7 - __copy_a_4 + __copy_a_7 <= 0
 A8-5: - __copy_x_5 + __copy_a_5 - __copy_a_8 <= 0
 A5-8: - __copy_x_8 - __copy_a_5 + __copy_a_8 <= 0
 A9-3: - __copy_x_3 + __copy_a_3 - __copy_a_9 <= 0
 A3-9: - __copy_x_9 - __copy_a_3 + __copy_a_9 <= 0
 A10-8: - __copy_x_8 + __copy_a_8 - __copy_a_10 <= 0
 A8-10: - __copy_x_10 - __copy_a_8 + __copy_a_10 <= 0
 A11-6: - __copy_x_6 + __copy_a_6 - __copy_a_11 <= 0
 A6-11: - __copy_x_11 - __copy_a_6 + __copy_a_11 <= 0
 A12-7: - __copy_x_7 + __copy_a_7 - __copy_a_12 <= 0
 A7-12: - __copy_x_12 - __copy_a_7 + __copy_a_12 <= 0
 A13-1: - __copy_x_1 + __copy_a_1 - __copy_a_13 <= 0
 A1-13: - __copy_x_13 - __copy_a_1 + __copy_a_13 <= 0
 A14-7: - __copy_x_7 + __copy_a_7 - __copy_a_14 <= 0
 A7-14: - __copy_x_14 - __copy_a_7 + __copy_a_14 <= 0
 A15-13: - __copy_x_13 + __copy_a_13 - __copy_a_15 <= 0
 A13-15: - __copy_x_15 - __copy_a_13 + __copy_a_15 <= 0
 A17-3: - __copy_x_3 + __copy_a_3 - __copy_a_17 <= 0
 A3-17: - __copy_x_17 - __copy_a_3 + __copy_a_17 <= 0
 A18-3: - __copy_x_3 + __copy_a_3 - __copy_a_18 <= 0
 A3-18: - __copy_x_18 - __copy_a_3 + __copy_a_18 <= 0
 A19-13: - __copy_x_13 + __copy_a_13 - __copy_a_19 <= 0
 A13-19: - __copy_x_19 - __copy_a_13 + __copy_a_19 <= 0
 A20-1: - __copy_x_1 + __copy_a_1 - __copy_a_20 <= 0
 A1-20: - __copy_x_20 - __copy_a_1 + __copy_a_20 <= 0
 A21-3: - __copy_x_3 + __copy_a_3 - __copy_a_21 <= 0
 A3-21: - __copy_x_21 - __copy_a_3 + __copy_a_21 <= 0
 A22-14: - __copy_x_14 + __copy_a_14 - __copy_a_22 <= 0
 A14-22: - __copy_x_22 - __copy_a_14 + __copy_a_22 <= 0
 A23-15: - __copy_x_15 + __copy_a_15 - __copy_a_23 <= 0
 A15-23: - __copy_x_23 - __copy_a_15 + __copy_a_23 <= 0
 A24-8: - __copy_x_8 + __copy_a_8 - __copy_a_24 <= 0
 A8-24: - __copy_x_24 - __copy_a_8 + __copy_a_24 <= 0
 A25-16: - __copy_x_16 + __copy_a_16 - __copy_a_25 <= 0
 A16-25: - __copy_x_25 - __copy_a_16 + __copy_a_25 <= 0
 A26-16: - __copy_x_16 + __copy_a_16 - __copy_a_26 <= 0
 A16-26: - __copy_x_26 - __copy_a_16 + __copy_a_26 <= 0
 A27-9: - __copy_x_9 + __copy_a_9 - __copy_a_27 <= 0
 A9-27: - __copy_x_27 - __copy_a_9 + __copy_a_27 <= 0
 A28-4: - __copy_x_4 + __copy_a_4 - __copy_a_28 <= 0
 A4-28: - __copy_x_28 - __copy_a_4 + __copy_a_28 <= 0
 A29-22: - __copy_x_22 + __copy_a_22 - __copy_a_29 <= 0
 A22-29: - __copy_x_29 - __copy_a_22 + __copy_a_29 <= 0
 A30-9: - __copy_x_9 + __copy_a_9 - __copy_a_30 <= 0
 A9-30: - __copy_x_30 - __copy_a_9 + __copy_a_30 <= 0
 A31-22: - __copy_x_22 + __copy_a_22 - __copy_a_31 <= 0
 A22-31: - __copy_x_31 - __copy_a_22 + __copy_a_31 <= 0
 A32-4: - __copy_x_4 + __copy_a_4 - __copy_a_32 <= 0
 A4-32: - __copy_x_32 - __copy_a_4 + __copy_a_32 <= 0
 A33-24: - __copy_x_24 + __copy_a_24 - __copy_a_33 <= 0
 A24-33: - __copy_x_33 - __copy_a_24 + __copy_a_33 <= 0
 A35-26: - __copy_x_26 + __copy_a_26 - __copy_a_35 <= 0
 A26-35: - __copy_x_35 - __copy_a_26 + __copy_a_35 <= 0
 A36-35: - __copy_x_35 + __copy_a_35 - __copy_a_36 <= 0
 A35-36: - __copy_x_36 - __copy_a_35 + __copy_a_36 <= 0
 A37-16: - __copy_x_16 + __copy_a_16 - __copy_a_37 <= 0
 A16-37: - __copy_x_37 - __copy_a_16 + __copy_a_37 <= 0
 A38-8: - __copy_x_8 + __copy_a_8 - __copy_a_38 <= 0
 A8-38: - __copy_x_38 - __copy_a_8 + __copy_a_38 <= 0
 A39-37: - __copy_x_37 + __copy_a_37 - __copy_a_39 <= 0
 A37-39: - __copy_x_39 - __copy_a_37 + __copy_a_39 <= 0
 A40-30: - __copy_x_30 + __copy_a_30 - __copy_a_40 <= 0
 A30-40: - __copy_x_40 - __copy_a_30 + __copy_a_40 <= 0
 A41-10: - __copy_x_10 + __copy_a_10 - __copy_a_41 <= 0
 A10-41: - __copy_x_41 - __copy_a_10 + __copy_a_41 <= 0
 A42-6: - __copy_x_6 + __copy_a_6 - __copy_a_42 <= 0
 A6-42: - __copy_x_42 - __copy_a_6 + __copy_a_42 <= 0
 A43-19: - __copy_x_19 + __copy_a_19 - __copy_a_43 <= 0
 A19-43: - __copy_x_43 - __copy_a_19 + __copy_a_43 <= 0
 A44-9: - __copy_x_9 + __copy_a_9 - __copy_a_44 <= 0
 A9-44: - __copy_x_44 - __copy_a_9 + __copy_a_44 <= 0
 A45-4: - __copy_x_4 + __copy_a_4 - __copy_a_45 <= 0
 A4-45: - __copy_x_45 - __copy_a_4 + __copy_a_45 <= 0
 A46-33: - __copy_x_33 + __copy_a_33 - __copy_a_46 <= 0
 A33-46: - __copy_x_46 - __copy_a_33 + __copy_a_46 <= 0
 A47-40: - __copy_x_40 + __copy_a_40 - __copy_a_47 <= 0
 A40-47: - __copy_x_47 - __copy_a_40 + __copy_a_47 <= 0
 A48-6: - __copy_x_6 + __copy_a_6 - __copy_a_48 <= 0
 A6-48: - __copy_x_48 - __copy_a_6 + __copy_a_48 <= 0
 A49-42: - __copy_x_42 + __copy_a_42 - __copy_a_49 <= 0
 A42-49: - __copy_x_49 - __copy_a_42 + __copy_a_49 <= 0
 A50-18: - __copy_x_18 + __copy_a_18 - __copy_a_50 <= 0
 A18-50: - __copy_x_50 - __copy_a_18 + __copy_a_50 <= 0
Bounds
Binaries
 __copy_x_50 __copy_x_49 __copy_x_48 __copy_x_47 __copy_x_46 __copy_x_45
 __copy_x_44 __copy_x_43 __copy_x_42 __copy_x_41 __copy_x_40 __copy_x_39
 __copy_x_38 __copy_x_37 __copy_x_36 __copy_x_35 __copy_x_34 __copy_x_33
 __copy_x_32 __copy_x_31 __copy_x_30 __copy_x_29 __copy_x_28 __copy_x_27
 __copy_x_26 __copy_x_25 __copy_x_24 __copy_x_23 __copy_x_22 __copy_x_21
 __copy_x_20 __copy_x_19 __copy_x_18 __copy_x_17 __copy_x_16 __copy_x_15
 __copy_x_14 __copy_x_13 __copy_x_12 __copy_x_11 __copy_x_10 __copy_x_9
 __copy_x_8 __copy_x_7 __copy_x_6 __copy_x_5 __copy_x_4 __copy_x_3
 __copy_x_1 y_1 __copy_a_1 y_3 __copy_a_3 y_4 __copy_a_4 y_5 __copy_a_5 y_6
 __copy_a_6 y_7 __copy_a_7 y_8 __copy_a_8 y_9 __copy_a_9 y_10 __copy_a_10
 y_11 __copy_a_11 y_12 __copy_a_12 y_13 __copy_a_13 y_14 __copy_a_14 y_15
 __copy_a_15 y_16 __copy_a_16 y_17 __copy_a_17 y_18 __copy_a_18 y_19
 __copy_a_19 y_20 __copy_a_20 y_21 __copy_a_21 y_22 __copy_a_22 y_23
 __copy_a_23 y_24 __copy_a_24 y_25 __copy_a_25 y_26 __copy_a_26 y_27
 __copy_a_27 y_28 __copy_a_28 y_29 __copy_a_29 y_30 __copy_a_30 y_31
 __copy_a_31 y_32 __copy_a_32 y_33 __copy_a_33 y_34 __copy_a_34 y_35
 __copy_a_35 y_36 __copy_a_36 y_37 __copy_a_37 y_38 __copy_a_38 y_39
 __copy_a_39 y_40 __copy_a_40 y_41 __copy_a_41 y_42 __copy_a_42 y_43
 __copy_a_43 y_44 __copy_a_44 y_45 __copy_a_45 y_46 __copy_a_46 y_47
 __copy_a_47 y_48 __copy_a_48 y_49 __copy_a_49 y_50 __copy_a_50
End
